c "896942.clq"
p edge 247 3696
e 1 17
e 1 18
e 1 19
e 1 21
e 1 22
e 1 23
e 1 24
e 1 27
e 1 30
e 1 33
e 1 44
e 1 53
e 1 67
e 1 69
e 1 83
e 1 90
e 1 94
e 1 105
e 1 142
e 1 209
e 1 220
e 2 17
e 2 18
e 2 19
e 2 20
e 2 21
e 2 22
e 2 23
e 2 24
e 2 26
e 2 28
e 2 32
e 2 33
e 2 36
e 2 38
e 2 42
e 2 47
e 2 50
e 2 53
e 2 62
e 2 65
e 2 66
e 2 69
e 2 74
e 2 78
e 2 80
e 2 95
e 2 100
e 2 102
e 2 113
e 2 120
e 2 137
e 2 143
e 2 148
e 2 151
e 2 154
e 2 159
e 2 167
e 2 177
e 2 201
e 2 204
e 2 209
e 2 222
e 3 17
e 3 18
e 3 21
e 3 26
e 3 30
e 3 33
e 3 47
e 3 60
e 3 84
e 3 86
e 3 90
e 3 93
e 3 101
e 3 109
e 3 134
e 3 141
e 3 144
e 3 145
e 3 155
e 3 162
e 3 176
e 3 195
e 3 210
e 3 227
e 3 228
e 3 234
e 3 241
e 3 242
e 4 17
e 4 18
e 4 19
e 4 20
e 4 21
e 4 22
e 4 23
e 4 24
e 4 28
e 4 30
e 4 31
e 4 32
e 4 33
e 4 35
e 4 39
e 4 43
e 4 46
e 4 48
e 4 51
e 4 63
e 4 71
e 4 75
e 4 81
e 4 82
e 4 85
e 4 87
e 4 90
e 4 97
e 4 102
e 4 103
e 4 108
e 4 115
e 4 117
e 4 126
e 4 131
e 4 134
e 4 139
e 4 160
e 4 171
e 4 174
e 4 175
e 4 201
e 4 211
e 4 228
e 4 229
e 4 237
e 5 17
e 5 18
e 5 19
e 5 20
e 5 21
e 5 23
e 5 25
e 5 26
e 5 28
e 5 37
e 5 43
e 5 48
e 5 49
e 5 51
e 5 56
e 5 58
e 5 78
e 5 82
e 5 85
e 5 108
e 5 112
e 5 116
e 5 130
e 5 142
e 5 154
e 5 194
e 5 224
e 6 17
e 6 18
e 6 19
e 6 20
e 6 25
e 6 29
e 6 31
e 6 32
e 6 34
e 6 38
e 6 40
e 6 41
e 6 43
e 6 47
e 6 56
e 6 58
e 6 63
e 6 68
e 6 75
e 6 80
e 6 88
e 6 105
e 6 124
e 6 130
e 6 132
e 6 141
e 6 143
e 6 166
e 6 167
e 6 182
e 6 185
e 6 200
e 6 201
e 6 206
e 6 208
e 6 210
e 6 213
e 6 232
e 6 247
e 7 17
e 7 18
e 7 19
e 7 20
e 7 21
e 7 22
e 7 23
e 7 24
e 7 25
e 7 26
e 7 27
e 7 30
e 7 31
e 7 33
e 7 40
e 7 41
e 7 44
e 7 45
e 7 46
e 7 49
e 7 51
e 7 52
e 7 54
e 7 57
e 7 62
e 7 65
e 7 67
e 7 74
e 7 75
e 7 86
e 7 87
e 7 94
e 7 97
e 7 104
e 7 115
e 7 117
e 7 126
e 7 131
e 7 135
e 7 136
e 7 146
e 7 149
e 7 158
e 7 163
e 7 164
e 7 178
e 7 182
e 7 186
e 7 192
e 7 194
e 7 195
e 7 197
e 7 208
e 7 219
e 7 240
e 8 17
e 8 18
e 8 19
e 8 20
e 8 22
e 8 23
e 8 25
e 8 28
e 8 35
e 8 37
e 8 42
e 8 46
e 8 47
e 8 50
e 8 61
e 8 74
e 8 80
e 8 128
e 8 134
e 8 138
e 8 149
e 8 170
e 8 187
e 8 195
e 8 207
e 8 208
e 8 216
e 8 223
e 8 228
e 8 239
e 8 242
e 9 17
e 9 18
e 9 19
e 9 20
e 9 21
e 9 22
e 9 23
e 9 25
e 9 27
e 9 28
e 9 30
e 9 31
e 9 34
e 9 38
e 9 40
e 9 43
e 9 46
e 9 47
e 9 49
e 9 53
e 9 55
e 9 57
e 9 58
e 9 60
e 9 62
e 9 63
e 9 64
e 9 71
e 9 74
e 9 77
e 9 90
e 9 107
e 9 109
e 9 112
e 9 118
e 9 120
e 9 126
e 9 132
e 9 133
e 9 146
e 9 148
e 9 150
e 9 153
e 9 157
e 9 173
e 9 177
e 9 181
e 9 184
e 9 188
e 9 195
e 9 207
e 9 209
e 9 211
e 9 220
e 9 233
e 10 17
e 10 18
e 10 19
e 10 20
e 10 22
e 10 23
e 10 24
e 10 26
e 10 27
e 10 28
e 10 29
e 10 31
e 10 32
e 10 33
e 10 34
e 10 37
e 10 39
e 10 44
e 10 47
e 10 48
e 10 58
e 10 65
e 10 68
e 10 83
e 10 85
e 10 88
e 10 92
e 10 98
e 10 121
e 10 133
e 10 136
e 10 139
e 10 149
e 10 153
e 10 163
e 10 172
e 10 178
e 10 199
e 11 17
e 11 18
e 11 21
e 11 33
e 11 46
e 11 55
e 11 56
e 11 59
e 11 60
e 11 72
e 11 85
e 11 94
e 11 108
e 11 123
e 11 127
e 11 140
e 11 146
e 11 156
e 11 211
e 12 17
e 12 18
e 12 19
e 12 20
e 12 21
e 12 22
e 12 24
e 12 25
e 12 28
e 12 29
e 12 32
e 12 33
e 12 36
e 12 39
e 12 42
e 12 46
e 12 48
e 12 56
e 12 65
e 12 66
e 12 73
e 12 76
e 12 78
e 12 81
e 12 88
e 12 96
e 12 98
e 12 119
e 12 127
e 12 128
e 12 131
e 12 135
e 12 137
e 12 140
e 12 141
e 12 166
e 12 197
e 12 203
e 12 211
e 12 231
e 12 235
e 12 238
e 12 239
e 13 17
e 13 18
e 13 19
e 13 20
e 13 21
e 13 23
e 13 25
e 13 27
e 13 28
e 13 30
e 13 32
e 13 35
e 13 39
e 13 40
e 13 42
e 13 43
e 13 50
e 13 51
e 13 56
e 13 58
e 13 59
e 13 61
e 13 73
e 13 77
e 13 80
e 13 82
e 13 92
e 13 94
e 13 113
e 13 123
e 13 132
e 13 136
e 13 157
e 13 159
e 13 160
e 13 167
e 13 182
e 13 190
e 13 200
e 13 209
e 13 212
e 13 242
e 14 17
e 14 19
e 14 20
e 14 22
e 14 23
e 14 24
e 14 25
e 14 26
e 14 27
e 14 28
e 14 33
e 14 35
e 14 41
e 14 42
e 14 49
e 14 50
e 14 55
e 14 67
e 14 83
e 14 84
e 14 89
e 14 94
e 14 96
e 14 102
e 14 103
e 14 116
e 14 120
e 14 121
e 14 137
e 14 218
e 14 231
e 14 237
e 15 17
e 15 18
e 15 19
e 15 20
e 15 21
e 15 22
e 15 23
e 15 24
e 15 25
e 15 26
e 15 27
e 15 29
e 15 30
e 15 32
e 15 34
e 15 36
e 15 37
e 15 38
e 15 39
e 15 40
e 15 42
e 15 48
e 15 51
e 15 55
e 15 57
e 15 58
e 15 59
e 15 60
e 15 64
e 15 69
e 15 71
e 15 72
e 15 75
e 15 97
e 15 112
e 15 113
e 15 116
e 15 121
e 15 125
e 15 127
e 15 148
e 15 149
e 15 178
e 15 183
e 15 187
e 15 216
e 15 218
e 15 221
e 15 230
e 16 17
e 16 18
e 16 19
e 16 20
e 16 21
e 16 22
e 16 24
e 16 26
e 16 28
e 16 29
e 16 30
e 16 38
e 16 41
e 16 42
e 16 44
e 16 48
e 16 49
e 16 50
e 16 51
e 16 52
e 16 53
e 16 55
e 16 57
e 16 61
e 16 66
e 16 93
e 16 106
e 16 113
e 16 131
e 16 144
e 16 146
e 16 148
e 16 151
e 16 158
e 16 169
e 16 172
e 16 174
e 16 175
e 16 179
e 16 205
e 16 209
e 16 217
e 16 219
e 16 222
e 16 224
e 16 225
e 16 226
e 16 231
e 16 237
e 16 247
e 17 18
e 17 19
e 17 20
e 17 21
e 17 22
e 17 23
e 17 24
e 17 25
e 17 27
e 17 28
e 17 29
e 17 30
e 17 31
e 17 33
e 17 34
e 17 35
e 17 36
e 17 37
e 17 38
e 17 39
e 17 40
e 17 41
e 17 42
e 17 43
e 17 44
e 17 46
e 17 52
e 17 53
e 17 57
e 17 58
e 17 59
e 17 62
e 17 63
e 17 65
e 17 67
e 17 68
e 17 70
e 17 71
e 17 73
e 17 77
e 17 79
e 17 80
e 17 81
e 17 86
e 17 91
e 17 92
e 17 93
e 17 101
e 17 106
e 17 108
e 17 109
e 17 110
e 17 121
e 17 123
e 17 126
e 17 129
e 17 134
e 17 135
e 17 138
e 17 140
e 17 144
e 17 146
e 17 148
e 17 152
e 17 156
e 17 160
e 17 162
e 17 167
e 17 169
e 17 170
e 17 177
e 17 186
e 17 189
e 17 197
e 17 198
e 17 200
e 17 202
e 17 204
e 17 211
e 17 213
e 17 217
e 17 219
e 17 230
e 17 245
e 18 19
e 18 20
e 18 21
e 18 22
e 18 23
e 18 24
e 18 25
e 18 26
e 18 27
e 18 28
e 18 31
e 18 39
e 18 40
e 18 41
e 18 42
e 18 43
e 18 46
e 18 47
e 18 48
e 18 49
e 18 50
e 18 52
e 18 53
e 18 54
e 18 55
e 18 56
e 18 57
e 18 59
e 18 60
e 18 64
e 18 66
e 18 70
e 18 71
e 18 73
e 18 76
e 18 79
e 18 81
e 18 82
e 18 83
e 18 87
e 18 91
e 18 92
e 18 97
e 18 100
e 18 104
e 18 107
e 18 108
e 18 109
e 18 111
e 18 114
e 18 122
e 18 132
e 18 135
e 18 139
e 18 141
e 18 143
e 18 145
e 18 147
e 18 148
e 18 151
e 18 152
e 18 153
e 18 155
e 18 158
e 18 164
e 18 167
e 18 168
e 18 170
e 18 171
e 18 174
e 18 179
e 18 180
e 18 181
e 18 186
e 18 194
e 18 195
e 18 200
e 18 214
e 18 216
e 18 222
e 18 223
e 18 225
e 18 229
e 18 237
e 18 240
e 18 243
e 19 20
e 19 21
e 19 22
e 19 23
e 19 24
e 19 25
e 19 26
e 19 27
e 19 29
e 19 31
e 19 32
e 19 33
e 19 34
e 19 35
e 19 36
e 19 37
e 19 40
e 19 44
e 19 45
e 19 46
e 19 49
e 19 51
e 19 52
e 19 54
e 19 55
e 19 61
e 19 63
e 19 65
e 19 73
e 19 76
e 19 77
e 19 81
e 19 83
e 19 88
e 19 90
e 19 92
e 19 93
e 19 95
e 19 99
e 19 101
e 19 106
e 19 115
e 19 117
e 19 119
e 19 121
e 19 123
e 19 126
e 19 127
e 19 129
e 19 130
e 19 133
e 19 136
e 19 138
e 19 139
e 19 143
e 19 144
e 19 145
e 19 147
e 19 150
e 19 153
e 19 154
e 19 155
e 19 159
e 19 162
e 19 168
e 19 172
e 19 176
e 19 182
e 19 184
e 19 191
e 19 195
e 19 202
e 19 211
e 19 218
e 19 225
e 19 227
e 19 235
e 19 240
e 19 246
e 20 21
e 20 22
e 20 23
e 20 24
e 20 26
e 20 27
e 20 28
e 20 29
e 20 30
e 20 31
e 20 36
e 20 37
e 20 38
e 20 40
e 20 41
e 20 45
e 20 46
e 20 49
e 20 51
e 20 54
e 20 55
e 20 56
e 20 60
e 20 65
e 20 67
e 20 68
e 20 70
e 20 73
e 20 76
e 20 78
e 20 79
e 20 80
e 20 83
e 20 86
e 20 88
e 20 90
e 20 93
e 20 95
e 20 97
e 20 98
e 20 100
e 20 111
e 20 112
e 20 120
e 20 122
e 20 125
e 20 131
e 20 132
e 20 133
e 20 135
e 20 136
e 20 138
e 20 139
e 20 140
e 20 141
e 20 142
e 20 145
e 20 157
e 20 164
e 20 166
e 20 171
e 20 175
e 20 185
e 20 189
e 20 192
e 20 194
e 20 197
e 20 198
e 20 201
e 20 206
e 20 207
e 20 208
e 20 211
e 20 212
e 20 213
e 20 218
e 20 221
e 20 237
e 20 238
e 20 242
e 21 22
e 21 23
e 21 24
e 21 25
e 21 26
e 21 27
e 21 29
e 21 30
e 21 31
e 21 34
e 21 35
e 21 36
e 21 37
e 21 39
e 21 40
e 21 43
e 21 44
e 21 45
e 21 48
e 21 49
e 21 52
e 21 53
e 21 54
e 21 56
e 21 57
e 21 58
e 21 63
e 21 64
e 21 76
e 21 81
e 21 82
e 21 93
e 21 95
e 21 100
e 21 106
e 21 108
e 21 109
e 21 110
e 21 113
e 21 114
e 21 116
e 21 121
e 21 122
e 21 127
e 21 128
e 21 129
e 21 134
e 21 135
e 21 138
e 21 147
e 21 148
e 21 149
e 21 153
e 21 161
e 21 168
e 21 172
e 21 180
e 21 183
e 21 184
e 21 189
e 21 192
e 21 207
e 21 210
e 21 217
e 21 219
e 21 231
e 21 233
e 21 246
e 22 24
e 22 25
e 22 26
e 22 27
e 22 29
e 22 31
e 22 33
e 22 36
e 22 38
e 22 48
e 22 54
e 22 57
e 22 62
e 22 64
e 22 66
e 22 82
e 22 83
e 22 86
e 22 87
e 22 89
e 22 90
e 22 91
e 22 93
e 22 95
e 22 99
e 22 101
e 22 102
e 22 105
e 22 113
e 22 114
e 22 118
e 22 128
e 22 136
e 22 147
e 22 149
e 22 155
e 22 159
e 22 162
e 22 167
e 22 170
e 22 179
e 22 182
e 22 184
e 22 187
e 22 204
e 22 213
e 22 214
e 22 215
e 22 229
e 23 24
e 23 25
e 23 26
e 23 29
e 23 30
e 23 32
e 23 33
e 23 36
e 23 37
e 23 38
e 23 39
e 23 41
e 23 43
e 23 50
e 23 51
e 23 52
e 23 62
e 23 64
e 23 66
e 23 68
e 23 69
e 23 72
e 23 73
e 23 79
e 23 80
e 23 82
e 23 88
e 23 89
e 23 91
e 23 96
e 23 97
e 23 100
e 23 101
e 23 103
e 23 106
e 23 115
e 23 116
e 23 120
e 23 123
e 23 130
e 23 139
e 23 140
e 23 141
e 23 165
e 23 171
e 23 177
e 23 183
e 23 190
e 23 197
e 23 198
e 23 207
e 23 215
e 23 217
e 23 225
e 23 232
e 23 235
e 23 237
e 23 242
e 24 25
e 24 26
e 24 27
e 24 28
e 24 29
e 24 31
e 24 32
e 24 33
e 24 34
e 24 35
e 24 36
e 24 37
e 24 38
e 24 41
e 24 44
e 24 45
e 24 46
e 24 48
e 24 49
e 24 50
e 24 51
e 24 53
e 24 58
e 24 59
e 24 63
e 24 64
e 24 66
e 24 67
e 24 69
e 24 70
e 24 75
e 24 78
e 24 79
e 24 80
e 24 84
e 24 85
e 24 87
e 24 91
e 24 96
e 24 97
e 24 99
e 24 103
e 24 105
e 24 107
e 24 115
e 24 127
e 24 128
e 24 133
e 24 137
e 24 141
e 24 159
e 24 161
e 24 162
e 24 164
e 24 167
e 24 173
e 24 181
e 24 185
e 24 189
e 24 192
e 24 202
e 24 203
e 24 204
e 24 211
e 24 212
e 24 217
e 24 218
e 24 220
e 24 235
e 24 239
e 24 241
e 24 244
e 25 26
e 25 27
e 25 28
e 25 29
e 25 30
e 25 31
e 25 32
e 25 33
e 25 34
e 25 35
e 25 36
e 25 37
e 25 38
e 25 39
e 25 40
e 25 41
e 25 42
e 25 43
e 25 44
e 25 45
e 25 46
e 25 50
e 25 52
e 25 54
e 25 55
e 25 56
e 25 58
e 25 59
e 25 62
e 25 66
e 25 67
e 25 68
e 25 70
e 25 71
e 25 72
e 25 74
e 25 76
e 25 77
e 25 79
e 25 86
e 25 87
e 25 88
e 25 100
e 25 103
e 25 105
e 25 111
e 25 113
e 25 118
e 25 129
e 25 130
e 25 132
e 25 133
e 25 141
e 25 142
e 25 146
e 25 147
e 25 153
e 25 158
e 25 159
e 25 168
e 25 174
e 25 185
e 25 189
e 25 190
e 25 193
e 25 198
e 25 199
e 25 214
e 25 219
e 25 220
e 25 223
e 25 225
e 25 228
e 25 231
e 25 234
e 25 235
e 25 238
e 25 239
e 26 27
e 26 28
e 26 29
e 26 30
e 26 31
e 26 32
e 26 34
e 26 35
e 26 38
e 26 41
e 26 43
e 26 49
e 26 50
e 26 59
e 26 61
e 26 62
e 26 67
e 26 69
e 26 70
e 26 71
e 26 73
e 26 81
e 26 82
e 26 83
e 26 87
e 26 110
e 26 111
e 26 113
e 26 123
e 26 127
e 26 128
e 26 129
e 26 134
e 26 146
e 26 147
e 26 153
e 26 158
e 26 159
e 26 166
e 26 170
e 26 176
e 26 178
e 26 186
e 26 188
e 26 190
e 26 197
e 26 205
e 26 227
e 26 229
e 26 230
e 26 241
e 26 246
e 27 29
e 27 31
e 27 32
e 27 34
e 27 35
e 27 36
e 27 37
e 27 38
e 27 39
e 27 44
e 27 45
e 27 48
e 27 53
e 27 54
e 27 55
e 27 56
e 27 58
e 27 61
e 27 62
e 27 63
e 27 66
e 27 74
e 27 78
e 27 79
e 27 83
e 27 87
e 27 88
e 27 89
e 27 91
e 27 92
e 27 93
e 27 95
e 27 96
e 27 97
e 27 98
e 27 104
e 27 108
e 27 110
e 27 111
e 27 114
e 27 115
e 27 117
e 27 120
e 27 122
e 27 129
e 27 131
e 27 134
e 27 139
e 27 142
e 27 148
e 27 150
e 27 165
e 27 179
e 27 181
e 27 184
e 27 189
e 27 191
e 27 192
e 27 194
e 27 195
e 27 198
e 27 203
e 27 205
e 27 221
e 27 229
e 27 230
e 27 231
e 27 237
e 27 241
e 27 245
e 28 29
e 28 30
e 28 32
e 28 34
e 28 35
e 28 37
e 28 39
e 28 41
e 28 42
e 28 43
e 28 47
e 28 48
e 28 55
e 28 59
e 28 64
e 28 66
e 28 67
e 28 69
e 28 78
e 28 83
e 28 88
e 28 92
e 28 98
e 28 100
e 28 109
e 28 111
e 28 118
e 28 125
e 28 129
e 28 131
e 28 145
e 28 154
e 28 157
e 28 160
e 28 163
e 28 164
e 28 165
e 28 168
e 28 169
e 28 174
e 28 177
e 28 179
e 28 180
e 28 181
e 28 185
e 28 187
e 28 194
e 28 196
e 28 199
e 28 201
e 28 203
e 28 208
e 28 211
e 28 224
e 28 227
e 28 233
e 28 247
e 29 30
e 29 32
e 29 34
e 29 35
e 29 36
e 29 40
e 29 41
e 29 44
e 29 45
e 29 46
e 29 47
e 29 49
e 29 54
e 29 57
e 29 58
e 29 64
e 29 67
e 29 71
e 29 76
e 29 81
e 29 90
e 29 104
e 29 110
e 29 118
e 29 127
e 29 129
e 29 130
e 29 135
e 29 137
e 29 138
e 29 144
e 29 153
e 29 156
e 29 159
e 29 164
e 29 174
e 29 184
e 29 185
e 29 186
e 29 187
e 29 189
e 29 190
e 29 194
e 29 195
e 29 198
e 29 208
e 29 213
e 29 220
e 29 221
e 29 244
e 29 246
e 30 31
e 30 33
e 30 34
e 30 35
e 30 36
e 30 38
e 30 39
e 30 40
e 30 41
e 30 42
e 30 45
e 30 46
e 30 48
e 30 49
e 30 50
e 30 56
e 30 58
e 30 59
e 30 60
e 30 61
e 30 62
e 30 63
e 30 72
e 30 76
e 30 86
e 30 88
e 30 102
e 30 112
e 30 119
e 30 131
e 30 148
e 30 151
e 30 152
e 30 160
e 30 166
e 30 179
e 30 182
e 30 183
e 30 188
e 30 190
e 30 195
e 30 196
e 30 200
e 30 213
e 30 217
e 30 222
e 30 227
e 30 247
e 31 32
e 31 34
e 31 35
e 31 37
e 31 40
e 31 44
e 31 45
e 31 48
e 31 49
e 31 53
e 31 59
e 31 68
e 31 70
e 31 71
e 31 73
e 31 77
e 31 78
e 31 79
e 31 80
e 31 84
e 31 85
e 31 87
e 31 89
e 31 93
e 31 95
e 31 98
e 31 101
e 31 106
e 31 113
e 31 117
e 31 121
e 31 127
e 31 136
e 31 140
e 31 145
e 31 147
e 31 154
e 31 168
e 31 183
e 31 184
e 31 186
e 31 192
e 31 197
e 31 222
e 31 226
e 31 229
e 31 231
e 31 235
e 31 237
e 31 246
e 32 35
e 32 36
e 32 37
e 32 39
e 32 41
e 32 42
e 32 45
e 32 47
e 32 50
e 32 53
e 32 56
e 32 57
e 32 61
e 32 63
e 32 66
e 32 68
e 32 69
e 32 72
e 32 75
e 32 79
e 32 86
e 32 89
e 32 90
e 32 94
e 32 96
e 32 100
e 32 102
e 32 108
e 32 109
e 32 114
e 32 118
e 32 120
e 32 121
e 32 126
e 32 127
e 32 136
e 32 139
e 32 142
e 32 143
e 32 144
e 32 149
e 32 155
e 32 156
e 32 162
e 32 163
e 32 170
e 32 174
e 32 176
e 32 179
e 32 180
e 32 182
e 32 183
e 32 186
e 32 187
e 32 216
e 32 219
e 32 221
e 32 226
e 32 227
e 32 229
e 32 234
e 32 242
e 32 243
e 32 246
e 33 34
e 33 36
e 33 38
e 33 43
e 33 44
e 33 45
e 33 52
e 33 57
e 33 59
e 33 60
e 33 64
e 33 66
e 33 74
e 33 84
e 33 85
e 33 89
e 33 90
e 33 92
e 33 96
e 33 97
e 33 99
e 33 110
e 33 111
e 33 113
e 33 114
e 33 116
e 33 125
e 33 126
e 33 128
e 33 129
e 33 133
e 33 145
e 33 150
e 33 160
e 33 161
e 33 164
e 33 171
e 33 188
e 33 189
e 33 195
e 33 197
e 33 198
e 33 200
e 33 205
e 33 219
e 33 225
e 33 227
e 34 39
e 34 40
e 34 42
e 34 47
e 34 50
e 34 52
e 34 53
e 34 54
e 34 63
e 34 64
e 34 70
e 34 71
e 34 72
e 34 74
e 34 76
e 34 79
e 34 81
e 34 91
e 34 96
e 34 101
e 34 123
e 34 137
e 34 138
e 34 144
e 34 148
e 34 167
e 34 202
e 34 204
e 34 205
e 34 209
e 34 230
e 34 236
e 34 240
e 35 42
e 35 51
e 35 52
e 35 53
e 35 61
e 35 62
e 35 68
e 35 73
e 35 75
e 35 77
e 35 81
e 35 83
e 35 89
e 35 90
e 35 92
e 35 103
e 35 104
e 35 116
e 35 124
e 35 129
e 35 132
e 35 134
e 35 140
e 35 148
e 35 154
e 35 159
e 35 162
e 35 165
e 35 171
e 35 180
e 35 193
e 35 196
e 35 198
e 35 205
e 35 210
e 35 223
e 35 239
e 35 242
e 36 37
e 36 38
e 36 41
e 36 42
e 36 47
e 36 51
e 36 60
e 36 61
e 36 63
e 36 65
e 36 84
e 36 86
e 36 87
e 36 88
e 36 89
e 36 91
e 36 98
e 36 101
e 36 103
e 36 104
e 36 118
e 36 124
e 36 128
e 36 165
e 36 179
e 36 184
e 36 188
e 36 199
e 36 203
e 36 206
e 36 207
e 36 214
e 36 216
e 36 225
e 36 236
e 36 245
e 36 247
e 37 45
e 37 47
e 37 50
e 37 52
e 37 59
e 37 60
e 37 71
e 37 73
e 37 84
e 37 104
e 37 108
e 37 110
e 37 111
e 37 130
e 37 134
e 37 151
e 37 168
e 37 175
e 37 188
e 37 208
e 37 215
e 37 242
e 37 243
e 37 246
e 38 39
e 38 40
e 38 43
e 38 44
e 38 47
e 38 53
e 38 56
e 38 59
e 38 61
e 38 62
e 38 65
e 38 67
e 38 68
e 38 69
e 38 82
e 38 94
e 38 103
e 38 110
e 38 133
e 38 134
e 38 173
e 38 174
e 38 185
e 38 203
e 38 215
e 38 233
e 38 244
e 38 247
e 39 45
e 39 48
e 39 51
e 39 52
e 39 53
e 39 54
e 39 55
e 39 57
e 39 70
e 39 77
e 39 80
e 39 81
e 39 85
e 39 89
e 39 93
e 39 97
e 39 103
e 39 107
e 39 110
e 39 115
e 39 116
e 39 117
e 39 118
e 39 124
e 39 126
e 39 139
e 39 145
e 39 156
e 39 161
e 39 168
e 39 175
e 39 191
e 39 194
e 39 197
e 39 201
e 39 203
e 39 221
e 39 224
e 39 226
e 39 231
e 39 245
e 40 43
e 40 46
e 40 50
e 40 52
e 40 76
e 40 84
e 40 91
e 40 93
e 40 94
e 40 109
e 40 115
e 40 126
e 40 133
e 40 138
e 40 143
e 40 152
e 40 176
e 40 183
e 40 193
e 40 194
e 40 206
e 40 231
e 40 234
e 41 45
e 41 51
e 41 52
e 41 56
e 41 57
e 41 60
e 41 62
e 41 72
e 41 83
e 41 84
e 41 85
e 41 99
e 41 101
e 41 104
e 41 105
e 41 110
e 41 112
e 41 119
e 41 131
e 41 151
e 41 171
e 41 175
e 41 176
e 41 177
e 41 186
e 41 209
e 41 213
e 41 216
e 41 219
e 41 224
e 41 238
e 41 240
e 42 43
e 42 44
e 42 45
e 42 51
e 42 55
e 42 57
e 42 68
e 42 74
e 42 86
e 42 91
e 42 111
e 42 124
e 42 143
e 42 156
e 42 157
e 42 161
e 42 169
e 42 172
e 42 191
e 42 208
e 42 209
e 42 217
e 42 223
e 42 232
e 42 234
e 43 44
e 43 61
e 43 69
e 43 70
e 43 72
e 43 74
e 43 75
e 43 83
e 43 94
e 43 96
e 43 115
e 43 122
e 43 123
e 43 131
e 43 135
e 43 150
e 43 151
e 43 160
e 43 170
e 43 172
e 43 181
e 43 188
e 43 189
e 43 192
e 43 208
e 44 47
e 44 51
e 44 54
e 44 56
e 44 61
e 44 62
e 44 65
e 44 70
e 44 71
e 44 72
e 44 79
e 44 85
e 44 98
e 44 103
e 44 106
e 44 108
e 44 109
e 44 117
e 44 118
e 44 123
e 44 125
e 44 130
e 44 137
e 44 139
e 44 147
e 44 148
e 44 154
e 44 155
e 44 166
e 44 221
e 44 235
e 44 238
e 45 46
e 45 47
e 45 49
e 45 50
e 45 53
e 45 55
e 45 59
e 45 60
e 45 61
e 45 64
e 45 67
e 45 72
e 45 73
e 45 74
e 45 80
e 45 86
e 45 93
e 45 97
e 45 102
e 45 105
e 45 106
e 45 111
e 45 113
e 45 117
e 45 124
e 45 125
e 45 129
e 45 130
e 45 136
e 45 151
e 45 168
e 45 191
e 45 202
e 45 206
e 45 217
e 45 220
e 45 222
e 45 229
e 45 246
e 45 247
e 46 48
e 46 49
e 46 54
e 46 75
e 46 80
e 46 85
e 46 86
e 46 92
e 46 94
e 46 96
e 46 98
e 46 102
e 46 107
e 46 108
e 46 110
e 46 117
e 46 121
e 46 123
e 46 126
e 46 128
e 46 134
e 46 159
e 46 163
e 46 168
e 46 175
e 46 198
e 46 199
e 46 201
e 46 202
e 46 215
e 46 217
e 46 241
e 47 54
e 47 58
e 47 61
e 47 63
e 47 64
e 47 66
e 47 68
e 47 69
e 47 72
e 47 74
e 47 75
e 47 78
e 47 79
e 47 88
e 47 92
e 47 98
e 47 102
e 47 104
e 47 105
e 47 129
e 47 132
e 47 135
e 47 138
e 47 141
e 47 142
e 47 144
e 47 146
e 47 147
e 47 161
e 47 167
e 47 168
e 47 170
e 47 171
e 47 172
e 47 173
e 47 187
e 47 188
e 47 201
e 47 206
e 47 212
e 47 219
e 47 221
e 47 244
e 47 247
e 48 55
e 48 60
e 48 62
e 48 63
e 48 65
e 48 66
e 48 69
e 48 72
e 48 75
e 48 82
e 48 84
e 48 90
e 48 91
e 48 94
e 48 95
e 48 100
e 48 104
e 48 112
e 48 122
e 48 124
e 48 142
e 48 153
e 48 162
e 48 166
e 48 169
e 48 177
e 48 178
e 48 184
e 48 199
e 48 215
e 48 230
e 49 55
e 49 56
e 49 58
e 49 63
e 49 64
e 49 70
e 49 71
e 49 77
e 49 78
e 49 81
e 49 89
e 49 92
e 49 102
e 49 103
e 49 104
e 49 106
e 49 107
e 49 133
e 49 141
e 49 149
e 49 161
e 49 193
e 49 218
e 50 59
e 50 74
e 50 76
e 50 94
e 50 113
e 50 121
e 50 123
e 50 130
e 50 133
e 50 137
e 50 139
e 50 152
e 50 155
e 50 176
e 50 246
e 51 52
e 51 54
e 51 60
e 51 63
e 51 65
e 51 78
e 51 82
e 51 91
e 51 92
e 51 93
e 51 96
e 51 106
e 51 112
e 51 130
e 51 137
e 51 165
e 51 168
e 51 190
e 51 205
e 51 221
e 51 226
e 52 57
e 52 67
e 52 73
e 52 85
e 52 89
e 52 94
e 52 98
e 52 101
e 52 109
e 52 111
e 52 119
e 52 125
e 52 139
e 52 141
e 52 145
e 52 147
e 52 150
e 52 155
e 52 160
e 52 162
e 52 170
e 52 186
e 52 188
e 52 224
e 52 238
e 53 54
e 53 62
e 53 75
e 53 78
e 53 94
e 53 98
e 53 99
e 53 132
e 53 133
e 53 156
e 53 164
e 53 173
e 53 180
e 53 191
e 53 196
e 53 199
e 53 202
e 53 228
e 53 237
e 53 238
e 53 241
e 53 242
e 54 61
e 54 64
e 54 69
e 54 72
e 54 73
e 54 74
e 54 76
e 54 77
e 54 81
e 54 82
e 54 85
e 54 87
e 54 89
e 54 96
e 54 101
e 54 104
e 54 107
e 54 109
e 54 110
e 54 117
e 54 120
e 54 128
e 54 135
e 54 145
e 54 148
e 54 149
e 54 186
e 54 196
e 54 203
e 54 206
e 54 208
e 54 210
e 54 226
e 54 231
e 54 238
e 54 245
e 55 66
e 55 67
e 55 72
e 55 79
e 55 82
e 55 97
e 55 105
e 55 108
e 55 114
e 55 128
e 55 136
e 55 137
e 55 138
e 55 146
e 55 152
e 55 153
e 55 172
e 55 176
e 55 181
e 55 182
e 55 184
e 55 198
e 55 217
e 55 218
e 55 222
e 55 227
e 55 232
e 56 57
e 56 58
e 56 67
e 56 68
e 56 69
e 56 71
e 56 75
e 56 76
e 56 77
e 56 78
e 56 90
e 56 95
e 56 97
e 56 112
e 56 118
e 56 119
e 56 124
e 56 150
e 56 152
e 56 169
e 56 177
e 56 182
e 56 183
e 56 194
e 56 214
e 56 238
e 56 247
e 57 60
e 57 65
e 57 68
e 57 75
e 57 77
e 57 82
e 57 87
e 57 89
e 57 98
e 57 99
e 57 105
e 57 107
e 57 109
e 57 118
e 57 128
e 57 134
e 57 154
e 57 167
e 57 170
e 57 178
e 57 185
e 57 194
e 57 207
e 57 222
e 57 226
e 57 231
e 57 237
e 58 77
e 58 81
e 58 91
e 58 110
e 58 118
e 58 128
e 58 132
e 58 142
e 58 154
e 58 187
e 58 189
e 58 198
e 58 203
e 58 213
e 58 217
e 59 60
e 59 69
e 59 84
e 59 85
e 59 100
e 59 107
e 59 115
e 59 121
e 59 124
e 59 140
e 59 142
e 59 147
e 59 157
e 59 174
e 59 177
e 59 180
e 59 182
e 59 186
e 59 191
e 59 221
e 59 230
e 59 232
e 59 233
e 59 246
e 60 70
e 60 100
e 60 101
e 60 111
e 60 120
e 60 122
e 60 152
e 60 155
e 60 157
e 60 171
e 60 182
e 60 186
e 60 200
e 60 217
e 60 219
e 60 234
e 60 241
e 60 242
e 61 65
e 61 67
e 61 70
e 61 71
e 61 74
e 61 78
e 61 92
e 61 95
e 61 117
e 61 131
e 61 147
e 61 152
e 61 153
e 61 162
e 61 173
e 61 193
e 61 217
e 61 244
e 62 65
e 62 66
e 62 70
e 62 72
e 62 73
e 62 76
e 62 82
e 62 86
e 62 98
e 62 111
e 62 112
e 62 115
e 62 116
e 62 125
e 62 136
e 62 140
e 62 142
e 62 145
e 62 149
e 62 153
e 62 154
e 62 156
e 62 158
e 62 159
e 62 163
e 62 185
e 62 203
e 62 207
e 62 214
e 62 232
e 62 236
e 62 237
e 63 64
e 63 70
e 63 71
e 63 80
e 63 81
e 63 105
e 63 106
e 63 107
e 63 118
e 63 125
e 63 133
e 63 134
e 63 142
e 63 143
e 63 200
e 63 235
e 63 236
e 64 65
e 64 68
e 64 77
e 64 100
e 64 107
e 64 120
e 64 122
e 64 124
e 64 136
e 64 137
e 64 140
e 64 143
e 64 146
e 64 147
e 64 151
e 64 156
e 64 160
e 64 166
e 64 170
e 64 176
e 64 183
e 64 185
e 64 195
e 64 197
e 64 216
e 64 228
e 64 243
e 65 68
e 65 101
e 65 105
e 65 116
e 65 123
e 65 129
e 65 159
e 65 212
e 65 227
e 65 240
e 65 241
e 65 242
e 66 75
e 66 77
e 66 80
e 66 87
e 66 97
e 66 102
e 66 105
e 66 107
e 66 116
e 66 119
e 66 135
e 66 155
e 66 159
e 66 163
e 66 169
e 66 187
e 66 200
e 66 202
e 66 225
e 66 232
e 66 242
e 67 69
e 67 74
e 67 80
e 67 91
e 67 99
e 67 103
e 67 113
e 67 126
e 67 134
e 67 149
e 67 150
e 67 161
e 67 168
e 67 173
e 67 178
e 67 190
e 67 193
e 67 214
e 67 224
e 68 75
e 68 81
e 68 83
e 68 86
e 68 91
e 68 93
e 68 94
e 68 99
e 68 109
e 68 116
e 68 128
e 68 135
e 68 156
e 68 159
e 68 173
e 68 178
e 68 188
e 68 223
e 68 231
e 68 232
e 69 76
e 69 79
e 69 84
e 69 87
e 69 91
e 69 99
e 69 100
e 69 106
e 69 114
e 69 117
e 69 143
e 69 150
e 69 158
e 69 173
e 69 196
e 69 197
e 69 201
e 69 237
e 69 244
e 70 87
e 70 99
e 70 103
e 70 106
e 70 114
e 70 117
e 70 118
e 70 121
e 70 164
e 71 83
e 71 86
e 71 99
e 71 105
e 71 109
e 71 111
e 71 112
e 71 114
e 71 116
e 71 118
e 71 123
e 71 125
e 71 131
e 71 147
e 71 163
e 71 166
e 71 167
e 71 173
e 71 184
e 71 187
e 71 188
e 71 200
e 71 206
e 71 213
e 71 218
e 71 222
e 71 233
e 72 73
e 72 84
e 72 88
e 72 93
e 72 97
e 72 107
e 72 112
e 72 114
e 72 116
e 72 122
e 72 147
e 72 150
e 72 154
e 72 181
e 72 192
e 72 193
e 72 209
e 72 213
e 72 227
e 72 240
e 73 76
e 73 78
e 73 80
e 73 88
e 73 89
e 73 92
e 73 102
e 73 104
e 73 112
e 73 120
e 73 122
e 73 131
e 73 145
e 73 151
e 73 169
e 73 177
e 73 187
e 73 193
e 73 205
e 73 215
e 73 218
e 74 77
e 74 78
e 74 79
e 74 84
e 74 92
e 74 95
e 74 101
e 74 102
e 74 110
e 74 116
e 74 120
e 74 130
e 74 132
e 74 144
e 74 154
e 74 160
e 74 165
e 74 167
e 74 171
e 74 175
e 74 181
e 74 182
e 74 189
e 74 226
e 74 236
e 75 83
e 75 89
e 75 95
e 75 106
e 75 113
e 75 119
e 75 122
e 75 132
e 75 137
e 75 138
e 75 153
e 75 170
e 75 181
e 75 203
e 75 227
e 75 233
e 75 247
e 76 84
e 76 93
e 76 102
e 76 104
e 76 117
e 76 119
e 76 155
e 76 159
e 76 179
e 76 184
e 76 196
e 76 216
e 76 223
e 77 88
e 77 95
e 77 104
e 77 119
e 77 139
e 77 174
e 77 179
e 77 193
e 77 197
e 77 209
e 77 216
e 77 220
e 77 221
e 77 228
e 77 233
e 78 79
e 78 96
e 78 114
e 78 150
e 78 164
e 78 187
e 78 202
e 78 220
e 78 227
e 79 82
e 79 84
e 79 87
e 79 97
e 79 98
e 79 99
e 79 119
e 79 120
e 79 125
e 79 135
e 79 139
e 79 146
e 79 151
e 79 157
e 79 160
e 79 167
e 79 201
e 79 208
e 79 212
e 79 216
e 79 219
e 79 224
e 79 225
e 79 230
e 79 236
e 79 237
e 79 240
e 79 241
e 79 244
e 80 119
e 80 122
e 80 123
e 80 169
e 80 196
e 80 202
e 80 210
e 80 222
e 81 85
e 81 90
e 81 99
e 81 111
e 81 117
e 81 126
e 81 130
e 81 135
e 81 140
e 81 165
e 81 184
e 81 185
e 81 186
e 81 191
e 81 213
e 81 228
e 82 85
e 82 98
e 82 127
e 82 136
e 82 169
e 82 173
e 82 190
e 82 192
e 82 196
e 82 206
e 83 86
e 83 99
e 83 106
e 83 107
e 83 188
e 83 192
e 83 193
e 83 208
e 83 211
e 83 229
e 83 232
e 84 96
e 84 99
e 84 100
e 84 103
e 84 104
e 84 108
e 84 144
e 84 158
e 84 160
e 84 161
e 84 162
e 84 176
e 84 180
e 84 187
e 84 193
e 84 204
e 84 212
e 84 214
e 84 217
e 84 229
e 84 233
e 84 234
e 85 105
e 85 112
e 85 121
e 85 136
e 85 173
e 85 199
e 85 208
e 85 215
e 85 238
e 85 246
e 85 247
e 86 88
e 86 109
e 86 115
e 86 125
e 86 160
e 86 165
e 86 168
e 86 178
e 86 192
e 86 202
e 86 224
e 86 226
e 86 243
e 87 95
e 87 110
e 87 165
e 87 191
e 87 210
e 87 212
e 87 218
e 87 223
e 87 233
e 88 90
e 88 108
e 88 115
e 88 136
e 88 143
e 88 146
e 88 158
e 88 160
e 88 177
e 88 186
e 88 194
e 88 214
e 88 215
e 88 225
e 88 239
e 89 90
e 89 94
e 89 95
e 89 102
e 89 112
e 89 119
e 89 152
e 89 161
e 89 178
e 89 197
e 89 207
e 89 214
e 90 96
e 90 107
e 90 119
e 90 125
e 90 131
e 90 150
e 90 165
e 90 181
e 90 240
e 91 114
e 91 161
e 91 178
e 91 179
e 91 181
e 91 223
e 91 224
e 91 232
e 91 243
e 92 100
e 92 102
e 92 108
e 92 132
e 92 138
e 92 145
e 92 154
e 92 189
e 92 190
e 92 199
e 92 218
e 92 220
e 92 234
e 92 235
e 92 239
e 93 95
e 93 137
e 93 138
e 93 157
e 93 197
e 93 204
e 93 205
e 93 206
e 93 230
e 93 234
e 93 245
e 94 113
e 94 122
e 94 124
e 94 172
e 94 223
e 94 239
e 95 96
e 95 108
e 95 119
e 95 141
e 95 154
e 95 163
e 95 166
e 95 207
e 95 218
e 95 233
e 95 235
e 96 100
e 96 124
e 96 141
e 96 146
e 96 168
e 96 170
e 96 171
e 96 172
e 96 178
e 96 211
e 96 226
e 96 241
e 97 101
e 97 118
e 97 122
e 97 127
e 97 141
e 97 142
e 97 163
e 97 165
e 97 180
e 97 184
e 97 187
e 97 188
e 97 216
e 98 105
e 98 111
e 98 115
e 98 127
e 98 152
e 98 176
e 98 177
e 98 190
e 98 239
e 98 243
e 98 247
e 99 101
e 99 103
e 99 110
e 99 117
e 99 122
e 99 124
e 99 140
e 99 152
e 99 165
e 99 166
e 99 173
e 99 174
e 99 201
e 99 213
e 99 215
e 99 216
e 99 225
e 99 240
e 99 243
e 100 103
e 100 113
e 100 116
e 100 120
e 100 128
e 100 135
e 100 141
e 100 142
e 100 171
e 100 176
e 100 200
e 100 202
e 100 220
e 100 222
e 100 228
e 100 245
e 101 130
e 101 137
e 101 188
e 101 209
e 101 230
e 101 244
e 102 106
e 102 121
e 102 124
e 102 125
e 102 164
e 102 174
e 102 177
e 102 185
e 102 205
e 102 206
e 102 207
e 102 223
e 102 224
e 103 114
e 103 143
e 103 166
e 103 180
e 103 187
e 103 193
e 103 198
e 103 235
e 104 107
e 104 125
e 104 138
e 104 163
e 104 195
e 104 196
e 104 198
e 104 209
e 104 216
e 104 219
e 104 227
e 105 132
e 105 143
e 105 162
e 105 183
e 105 224
e 106 114
e 106 133
e 106 182
e 107 115
e 107 120
e 107 127
e 107 136
e 107 146
e 107 152
e 107 156
e 107 157
e 107 160
e 107 171
e 107 183
e 107 210
e 107 243
e 108 109
e 108 114
e 108 124
e 108 126
e 108 141
e 108 145
e 108 147
e 108 150
e 108 155
e 108 178
e 108 210
e 108 234
e 109 127
e 109 155
e 109 158
e 109 165
e 109 171
e 109 180
e 109 210
e 110 124
e 110 126
e 110 127
e 110 137
e 110 145
e 110 157
e 110 166
e 110 174
e 110 204
e 110 235
e 111 112
e 111 121
e 111 126
e 111 137
e 111 138
e 111 176
e 111 232
e 112 115
e 112 125
e 112 130
e 112 142
e 112 148
e 112 153
e 112 157
e 112 191
e 112 203
e 112 234
e 113 129
e 113 132
e 113 139
e 113 169
e 113 174
e 113 196
e 113 223
e 113 229
e 113 235
e 113 238
e 113 246
e 114 155
e 114 161
e 114 163
e 114 179
e 114 188
e 114 235
e 114 238
e 115 158
e 115 185
e 115 187
e 115 205
e 115 210
e 115 211
e 115 242
e 116 120
e 116 123
e 116 126
e 116 130
e 116 144
e 116 145
e 116 155
e 116 162
e 116 170
e 116 174
e 116 204
e 116 216
e 116 226
e 116 230
e 116 236
e 117 119
e 117 146
e 117 157
e 117 202
e 117 218
e 117 221
e 118 122
e 118 162
e 118 192
e 118 199
e 118 219
e 118 229
e 119 123
e 119 128
e 119 131
e 119 134
e 119 140
e 119 143
e 119 193
e 119 200
e 119 211
e 119 238
e 120 121
e 120 144
e 120 163
e 120 169
e 120 172
e 120 207
e 120 245
e 121 129
e 121 143
e 121 151
e 121 158
e 121 159
e 121 171
e 121 194
e 121 203
e 121 207
e 121 210
e 121 215
e 122 142
e 122 144
e 122 239
e 123 196
e 123 218
e 123 234
e 123 238
e 123 243
e 124 179
e 124 243
e 125 134
e 125 138
e 125 144
e 125 164
e 125 169
e 125 171
e 125 172
e 125 176
e 125 193
e 125 208
e 125 211
e 126 139
e 126 146
e 126 149
e 126 152
e 126 156
e 126 164
e 126 166
e 126 167
e 126 173
e 126 179
e 126 182
e 126 183
e 126 189
e 126 202
e 126 226
e 126 247
e 127 129
e 127 131
e 127 132
e 127 133
e 127 150
e 127 173
e 127 194
e 127 197
e 127 230
e 127 231
e 127 241
e 128 151
e 128 161
e 128 176
e 128 244
e 129 135
e 129 140
e 129 153
e 129 156
e 129 161
e 129 165
e 129 189
e 129 206
e 129 233
e 129 236
e 130 144
e 130 149
e 130 172
e 130 190
e 130 199
e 130 212
e 130 220
e 131 149
e 131 175
e 131 191
e 131 246
e 132 133
e 132 140
e 132 144
e 132 149
e 132 158
e 132 162
e 132 203
e 132 229
e 132 236
e 132 240
e 132 246
e 133 167
e 133 179
e 133 180
e 133 190
e 133 222
e 133 223
e 134 148
e 134 149
e 134 163
e 134 234
e 134 243
e 135 150
e 135 152
e 135 156
e 135 175
e 135 200
e 135 242
e 136 169
e 136 175
e 136 178
e 136 191
e 136 192
e 136 219
e 136 221
e 136 240
e 136 244
e 136 245
e 137 140
e 137 154
e 137 158
e 137 162
e 137 172
e 137 184
e 137 185
e 137 200
e 137 221
e 137 225
e 137 234
e 138 151
e 138 156
e 138 172
e 138 173
e 138 174
e 138 180
e 138 192
e 138 203
e 138 204
e 138 211
e 138 213
e 138 224
e 138 225
e 138 232
e 138 235
e 139 188
e 139 191
e 139 199
e 139 200
e 139 229
e 139 236
e 139 247
e 140 163
e 140 165
e 140 184
e 140 198
e 140 206
e 140 232
e 141 143
e 141 167
e 141 240
e 141 245
e 142 152
e 142 153
e 142 157
e 142 182
e 142 212
e 142 215
e 142 243
e 143 155
e 143 241
e 144 164
e 144 175
e 144 212
e 144 217
e 144 243
e 145 161
e 145 185
e 145 191
e 145 226
e 146 160
e 146 170
e 146 177
e 146 192
e 146 201
e 146 202
e 146 215
e 146 232
e 146 247
e 147 148
e 147 151
e 147 156
e 147 157
e 147 178
e 147 195
e 147 199
e 147 202
e 147 204
e 147 210
e 148 150
e 148 241
e 149 151
e 149 157
e 149 181
e 149 183
e 149 190
e 149 214
e 149 216
e 149 222
e 149 228
e 150 154
e 150 177
e 150 182
e 150 197
e 150 198
e 150 206
e 150 212
e 150 241
e 151 175
e 151 189
e 151 205
e 151 220
e 151 226
e 151 233
e 151 240
e 152 161
e 152 163
e 152 191
e 152 221
e 152 223
e 153 158
e 153 168
e 153 210
e 153 213
e 153 215
e 153 228
e 153 236
e 154 172
e 154 181
e 154 193
e 154 196
e 154 201
e 154 205
e 154 212
e 154 225
e 154 231
e 155 158
e 155 164
e 155 180
e 155 233
e 155 244
e 156 175
e 156 226
e 156 228
e 157 166
e 157 222
e 157 229
e 157 238
e 158 193
e 158 196
e 158 226
e 158 239
e 159 204
e 159 224
e 160 183
e 160 190
e 160 212
e 161 164
e 161 198
e 161 201
e 161 207
e 161 210
e 161 237
e 162 186
e 162 224
e 162 245
e 163 189
e 163 191
e 163 196
e 163 231
e 164 166
e 164 169
e 164 239
e 165 170
e 165 180
e 165 183
e 165 218
e 165 219
e 165 234
e 166 169
e 166 213
e 166 220
e 166 236
e 167 181
e 167 183
e 168 178
e 168 204
e 168 230
e 168 244
e 169 212
e 169 238
e 170 196
e 170 213
e 170 220
e 170 222
e 170 229
e 170 233
e 170 243
e 170 247
e 171 199
e 171 206
e 171 236
e 171 246
e 172 175
e 172 176
e 172 180
e 172 190
e 172 195
e 172 209
e 173 195
e 173 199
e 173 200
e 173 201
e 173 219
e 173 228
e 173 240
e 174 175
e 174 177
e 174 179
e 174 204
e 174 214
e 174 220
e 174 244
e 174 246
e 175 245
e 176 181
e 176 209
e 177 215
e 177 235
e 178 194
e 178 220
e 178 221
e 179 185
e 179 230
e 179 241
e 180 205
e 180 217
e 181 186
e 181 194
e 181 207
e 181 212
e 182 227
e 182 232
e 183 245
e 184 201
e 184 206
e 184 216
e 186 207
e 186 214
e 186 230
e 187 209
e 187 214
e 188 205
e 188 214
e 188 237
e 189 199
e 189 204
e 189 215
e 190 192
e 191 195
e 191 234
e 191 236
e 192 225
e 193 208
e 193 228
e 193 236
e 198 208
e 198 227
e 199 242
e 199 244
e 200 224
e 200 232
e 200 244
e 201 204
e 201 214
e 202 203
e 203 205
e 204 209
e 204 241
e 205 210
e 205 239
e 205 245
e 206 231
e 207 218
e 208 225
e 208 230
e 209 211
e 209 222
e 210 239
e 211 223
e 211 244
e 213 239
e 214 227
e 217 245
e 220 245
e 221 228
e 221 239
e 222 223
e 222 228
e 226 240
e 227 243
e 229 233
e 229 236
e 229 237
e 229 242
